decision_x1=[0,4];
decision_x2=[0,4];
decision_x3=[0,4];
decision_x4=[0,4];
decision_x5=[0,4];
decision_x6=[0,4];
decision_x7=[0,4];
decision_x8=[0,4];
decision_x9=[0,4];
decision_x10=[0,4];
random_y1=[0,4];
random_y2=[0,4];
random_y3=[0,4];
random_y4=[0,4];
random_y5=[0,4];
random_y6=[0,4];
random_y7=[0,4];
random_y8=[0,4];
random_y9=[0,4];
random_y10=[0,4];
constraint_x2_x1=[
0,0,15|
0,1,55|
0,2,49|
0,3,48|
0,4,70|
1,0,77|
1,1,30|
1,2,29|
1,3,24|
1,4,69|
2,0,16|
2,1,88|
2,2,79|
2,3,40|
2,4,17|
3,0,67|
3,1,76|
3,2,47|
3,3,99|
3,4,13|
4,0,45|
4,1,33|
4,2,85|
4,3,11|
4,4,3.9|
];
constraint_x4_x1=[
0,0,17|
0,1,5|
0,2,37|
0,3,93|
0,4,84|
1,0,89|
1,1,50|
1,2,71|
1,3,49|
1,4,87|
2,0,6|
2,1,70|
2,2,46|
2,3,34|
2,4,13|
3,0,48|
3,1,88|
3,2,1e+02|
3,3,95|
3,4,49|
4,0,50|
4,1,25|
4,2,14|
4,3,63|
4,4,92|
];
constraint_x4_x2=[
0,0,97|
0,1,76|
0,2,45|
0,3,51|
0,4,57|
1,0,97|
1,1,1e+02|
1,2,20|
1,3,5.4|
1,4,23|
2,0,18|
2,1,86|
2,2,2.1|
2,3,25|
2,4,2.3|
3,0,59|
3,1,11|
3,2,2|
3,3,79|
3,4,49|
4,0,63|
4,1,58|
4,2,88|
4,3,78|
4,4,41|
];
constraint_x4_x3=[
0,0,17|
0,1,1.5|
0,2,84|
0,3,46|
0,4,61|
1,0,50|
1,1,9.7|
1,2,53|
1,3,72|
1,4,72|
2,0,17|
2,1,43|
2,2,1.7|
2,3,2.4|
2,4,45|
3,0,54|
3,1,10|
3,2,5.4|
3,3,33|
3,4,82|
4,0,19|
4,1,54|
4,2,41|
4,3,58|
4,4,6.2|
];
constraint_x5_x4=[
0,0,72|
0,1,4.6|
0,2,72|
0,3,25|
0,4,49|
1,0,53|
1,1,61|
1,2,33|
1,3,41|
1,4,72|
2,0,17|
2,1,70|
2,2,26|
2,3,56|
2,4,6|
3,0,3.5|
3,1,22|
3,2,37|
3,3,90|
3,4,67|
4,0,22|
4,1,48|
4,2,50|
4,3,23|
4,4,19|
];
constraint_x6_x3=[
0,0,51|
0,1,75|
0,2,86|
0,3,9.4|
0,4,74|
1,0,70|
1,1,78|
1,2,88|
1,3,80|
1,4,56|
2,0,82|
2,1,38|
2,2,90|
2,3,76|
2,4,48|
3,0,30|
3,1,35|
3,2,91|
3,3,5.7|
3,4,63|
4,0,8.2|
4,1,40|
4,2,45|
4,3,23|
4,4,70|
];
constraint_x6_x4=[
0,0,75|
0,1,77|
0,2,13|
0,3,9.7|
0,4,11|
1,0,40|
1,1,49|
1,2,11|
1,3,79|
1,4,13|
2,0,44|
2,1,46|
2,2,56|
2,3,42|
2,4,90|
3,0,76|
3,1,13|
3,2,56|
3,3,68|
3,4,98|
4,0,76|
4,1,98|
4,2,19|
4,3,48|
4,4,9.7|
];
constraint_x7_x2=[
0,0,2.8|
0,1,20|
0,2,83|
0,3,89|
0,4,10|
1,0,38|
1,1,93|
1,2,25|
1,3,74|
1,4,8.5|
2,0,8.3|
2,1,86|
2,2,74|
2,3,60|
2,4,47|
3,0,0.25|
3,1,46|
3,2,79|
3,3,72|
3,4,0.85|
4,0,1e+02|
4,1,89|
4,2,40|
4,3,37|
4,4,22|
];
constraint_x7_x4=[
0,0,2|
0,1,13|
0,2,11|
0,3,12|
0,4,44|
1,0,17|
1,1,15|
1,2,57|
1,3,18|
1,4,48|
2,0,25|
2,1,0.097|
2,2,31|
2,3,80|
2,4,31|
3,0,20|
3,1,40|
3,2,97|
3,3,18|
3,4,77|
4,0,40|
4,1,76|
4,2,94|
4,3,32|
4,4,49|
];
constraint_x7_x5=[
0,0,66|
0,1,33|
0,2,17|
0,3,31|
0,4,67|
1,0,5.9|
1,1,43|
1,2,65|
1,3,17|
1,4,80|
2,0,98|
2,1,32|
2,2,24|
2,3,1.5|
2,4,68|
3,0,56|
3,1,55|
3,2,88|
3,3,68|
3,4,71|
4,0,42|
4,1,37|
4,2,17|
4,3,31|
4,4,31|
];
constraint_x8_x3=[
0,0,35|
0,1,96|
0,2,85|
0,3,74|
0,4,84|
1,0,39|
1,1,7.6|
1,2,42|
1,3,16|
1,4,32|
2,0,8.1|
2,1,27|
2,2,95|
2,3,12|
2,4,25|
3,0,86|
3,1,45|
3,2,63|
3,3,62|
3,4,69|
4,0,30|
4,1,86|
4,2,22|
4,3,94|
4,4,48|
];
constraint_x8_x4=[
0,0,42|
0,1,71|
0,2,40|
0,3,75|
0,4,98|
1,0,49|
1,1,4.7|
1,2,19|
1,3,56|
1,4,85|
2,0,87|
2,1,41|
2,2,27|
2,3,55|
2,4,54|
3,0,77|
3,1,46|
3,2,44|
3,3,53|
3,4,93|
4,0,88|
4,1,6.5|
4,2,13|
4,3,88|
4,4,76|
];
constraint_x8_x5=[
0,0,79|
0,1,47|
0,2,22|
0,3,8.9|
0,4,52|
1,0,91|
1,1,35|
1,2,61|
1,3,45|
1,4,25|
2,0,76|
2,1,84|
2,2,40|
2,3,98|
2,4,5.4|
3,0,98|
3,1,4.2|
3,2,26|
3,3,26|
3,4,29|
4,0,50|
4,1,38|
4,2,70|
4,3,52|
4,4,12|
];
constraint_x9_x2=[
0,0,57|
0,1,34|
0,2,71|
0,3,4.5|
0,4,75|
1,0,74|
1,1,29|
1,2,25|
1,3,1.6|
1,4,67|
2,0,4.6|
2,1,46|
2,2,0.63|
2,3,91|
2,4,36|
3,0,58|
3,1,14|
3,2,1.7|
3,3,44|
3,4,74|
4,0,50|
4,1,73|
4,2,41|
4,3,17|
4,4,84|
];
constraint_x9_x4=[
0,0,56|
0,1,13|
0,2,26|
0,3,46|
0,4,73|
1,0,8.2|
1,1,44|
1,2,93|
1,3,8.8|
1,4,98|
2,0,43|
2,1,6.1|
2,2,97|
2,3,55|
2,4,86|
3,0,65|
3,1,82|
3,2,86|
3,3,77|
3,4,71|
4,0,79|
4,1,24|
4,2,87|
4,3,53|
4,4,42|
];
constraint_x9_x6=[
0,0,80|
0,1,35|
0,2,96|
0,3,44|
0,4,68|
1,0,40|
1,1,18|
1,2,24|
1,3,89|
1,4,23|
2,0,69|
2,1,84|
2,2,79|
2,3,9.4|
2,4,75|
3,0,36|
3,1,14|
3,2,4.2|
3,3,37|
3,4,8.2|
4,0,36|
4,1,36|
4,2,42|
4,3,3.2|
4,4,41|
];
constraint_x9_x8=[
0,0,15|
0,1,54|
0,2,70|
0,3,69|
0,4,67|
1,0,29|
1,1,29|
1,2,0.87|
1,3,36|
1,4,37|
2,0,47|
2,1,50|
2,2,36|
2,3,58|
2,4,97|
3,0,34|
3,1,87|
3,2,68|
3,3,40|
3,4,29|
4,0,81|
4,1,11|
4,2,1e+02|
4,3,73|
4,4,3.7|
];
constraint_x10_x1=[
0,0,44|
0,1,49|
0,2,2.6|
0,3,25|
0,4,61|
1,0,78|
1,1,60|
1,2,63|
1,3,98|
1,4,14|
2,0,22|
2,1,32|
2,2,37|
2,3,28|
2,4,20|
3,0,67|
3,1,2.5|
3,2,48|
3,3,23|
3,4,78|
4,0,7.2|
4,1,37|
4,2,14|
4,3,50|
4,4,78|
];
constraint_x10_x3=[
0,0,36|
0,1,60|
0,2,44|
0,3,64|
0,4,22|
1,0,97|
1,1,3|
1,2,92|
1,3,9.4|
1,4,45|
2,0,44|
2,1,5.6|
2,2,21|
2,3,7.4|
2,4,67|
3,0,70|
3,1,30|
3,2,60|
3,3,14|
3,4,61|
4,0,5|
4,1,25|
4,2,0.31|
4,3,78|
4,4,30|
];
constraint_x10_x4=[
0,0,82|
0,1,0.09|
0,2,32|
0,3,67|
0,4,76|
1,0,75|
1,1,82|
1,2,94|
1,3,98|
1,4,25|
2,0,45|
2,1,16|
2,2,64|
2,3,99|
2,4,61|
3,0,19|
3,1,19|
3,2,28|
3,3,11|
3,4,14|
4,0,93|
4,1,17|
4,2,42|
4,3,49|
4,4,78|
];
constraint_x10_x5=[
0,0,35|
0,1,15|
0,2,46|
0,3,22|
0,4,19|
1,0,2.4|
1,1,58|
1,2,50|
1,3,43|
1,4,80|
2,0,79|
2,1,13|
2,2,72|
2,3,44|
2,4,47|
3,0,40|
3,1,31|
3,2,65|
3,3,8.9|
3,4,40|
4,0,5.5|
4,1,45|
4,2,22|
4,3,4.5|
4,4,24|
];
constraint_x10_x7=[
0,0,43|
0,1,6.1|
0,2,1e+02|
0,3,16|
0,4,54|
1,0,84|
1,1,21|
1,2,43|
1,3,81|
1,4,29|
2,0,54|
2,1,0.41|
2,2,19|
2,3,53|
2,4,15|
3,0,66|
3,1,60|
3,2,44|
3,3,86|
3,4,45|
4,0,61|
4,1,48|
4,2,2.5|
4,3,86|
4,4,11|
];
constraint_x10_x8=[
0,0,9.9|
0,1,98|
0,2,17|
0,3,70|
0,4,83|
1,0,85|
1,1,32|
1,2,19|
1,3,76|
1,4,39|
2,0,73|
2,1,69|
2,2,80|
2,3,65|
2,4,92|
3,0,91|
3,1,32|
3,2,89|
3,3,20|
3,4,74|
4,0,18|
4,1,21|
4,2,45|
4,3,68|
4,4,14|
];
constraint_x1_y1=[
0,0,85|
0,1,91|
0,2,86|
0,3,33|
0,4,64|
1,0,95|
1,1,38|
1,2,91|
1,3,1e+02|
1,4,98|
2,0,26|
2,1,33|
2,2,26|
2,3,33|
2,4,8.2|
3,0,93|
3,1,38|
3,2,61|
3,3,0.83|
3,4,23|
4,0,3.5|
4,1,35|
4,2,33|
4,3,15|
4,4,82|
];
constraint_x2_y2=[
0,0,4.6|
0,1,9.4|
0,2,62|
0,3,73|
0,4,4.7|
1,0,51|
1,1,99|
1,2,15|
1,3,45|
1,4,86|
2,0,14|
2,1,76|
2,2,32|
2,3,1.5|
2,4,48|
3,0,1.7|
3,1,52|
3,2,30|
3,3,58|
3,4,47|
4,0,75|
4,1,45|
4,2,99|
4,3,85|
4,4,78|
];
constraint_x3_y3=[
0,0,96|
0,1,65|
0,2,23|
0,3,46|
0,4,77|
1,0,34|
1,1,23|
1,2,45|
1,3,13|
1,4,76|
2,0,78|
2,1,58|
2,2,97|
2,3,23|
2,4,50|
3,0,17|
3,1,5.6|
3,2,94|
3,3,16|
3,4,66|
4,0,8.3|
4,1,44|
4,2,94|
4,3,25|
4,4,89|
];
constraint_x4_y4=[
0,0,32|
0,1,89|
0,2,53|
0,3,44|
0,4,83|
1,0,23|
1,1,91|
1,2,71|
1,3,75|
1,4,63|
2,0,46|
2,1,41|
2,2,36|
2,3,6.7|
2,4,95|
3,0,30|
3,1,85|
3,2,69|
3,3,16|
3,4,79|
4,0,23|
4,1,93|
4,2,38|
4,3,36|
4,4,74|
];
constraint_x5_y5=[
0,0,10|
0,1,17|
0,2,90|
0,3,90|
0,4,59|
1,0,33|
1,1,82|
1,2,39|
1,3,91|
1,4,67|
2,0,66|
2,1,91|
2,2,40|
2,3,19|
2,4,63|
3,0,7.8|
3,1,55|
3,2,52|
3,3,78|
3,4,88|
4,0,46|
4,1,17|
4,2,25|
4,3,97|
4,4,57|
];
constraint_x6_y6=[
0,0,70|
0,1,24|
0,2,50|
0,3,39|
0,4,89|
1,0,50|
1,1,40|
1,2,83|
1,3,79|
1,4,53|
2,0,71|
2,1,86|
2,2,8.1|
2,3,18|
2,4,49|
3,0,77|
3,1,90|
3,2,95|
3,3,60|
3,4,79|
4,0,94|
4,1,77|
4,2,35|
4,3,69|
4,4,63|
];
constraint_x7_y7=[
0,0,21|
0,1,57|
0,2,12|
0,3,74|
0,4,45|
1,0,60|
1,1,94|
1,2,24|
1,3,63|
1,4,28|
2,0,55|
2,1,77|
2,2,9.9|
2,3,41|
2,4,32|
3,0,2.6|
3,1,89|
3,2,46|
3,3,67|
3,4,17|
4,0,52|
4,1,11|
4,2,62|
4,3,26|
4,4,38|
];
constraint_x8_y8=[
0,0,54|
0,1,56|
0,2,71|
0,3,32|
0,4,62|
1,0,4.6|
1,1,0.69|
1,2,57|
1,3,6.6|
1,4,24|
2,0,9.1|
2,1,13|
2,2,38|
2,3,87|
2,4,41|
3,0,88|
3,1,35|
3,2,39|
3,3,30|
3,4,24|
4,0,15|
4,1,19|
4,2,81|
4,3,1.5|
4,4,43|
];
constraint_x9_y9=[
0,0,64|
0,1,49|
0,2,49|
0,3,25|
0,4,15|
1,0,76|
1,1,27|
1,2,74|
1,3,16|
1,4,55|
2,0,19|
2,1,40|
2,2,19|
2,3,14|
2,4,11|
3,0,80|
3,1,46|
3,2,68|
3,3,43|
3,4,62|
4,0,55|
4,1,57|
4,2,35|
4,3,38|
4,4,65|
];
constraint_x10_y10=[
0,0,20|
0,1,9.9|
0,2,75|
0,3,66|
0,4,41|
1,0,41|
1,1,33|
1,2,95|
1,3,76|
1,4,30|
2,0,84|
2,1,2.1|
2,2,52|
2,3,34|
2,4,98|
3,0,95|
3,1,21|
3,2,45|
3,3,85|
3,4,85|
4,0,49|
4,1,71|
4,2,14|
4,3,12|
4,4,99|
];
initial_distribution_y1=[0.23,0.25,0.093,0.16,0.26];
initial_distribution_y2=[0.34,0.23,0.32,0.056,0.059];
initial_distribution_y3=[0.2,0.43,0.13,0.23,0.0076];
initial_distribution_y4=[0.18,0.055,0.3,0.31,0.16];
initial_distribution_y5=[0.26,0.15,0.14,0.32,0.14];
initial_distribution_y6=[0.38,0.029,0.26,0.13,0.2];
initial_distribution_y7=[0.12,0.26,0.27,0.16,0.18];
initial_distribution_y8=[0.46,0.079,0.038,0.38,0.038];
initial_distribution_y9=[0.024,0.33,0.25,0.34,0.061];
initial_distribution_y10=[0.3,0.0062,0.2,0.19,0.31];
transition_y1=[
0.091,0.11,0.3,0.24,0.26|
0.23,0.28,0.17,0.14,0.19|
0.13,0.22,0.23,0.061,0.36|
0.33,0.027,0.3,0.2,0.15|
0.22,0.29,0.075,0.35,0.06|
];
transition_y2=[
0.12,0.21,0.21,0.18,0.28|
0.21,0.25,0.1,0.23,0.21|
0.27,0.29,0.22,0.19,0.028|
0.18,0.2,0.27,0.19,0.16|
0.21,0.18,0.19,0.21,0.2|
];
transition_y3=[
0.0087,0.3,0.19,0.31,0.2|
0.021,0.61,0.18,0.17,0.019|
0.26,0.12,0.15,0.23,0.24|
0.29,0.17,0.25,0.14,0.15|
0.26,0.0055,0.24,0.16,0.33|
];
transition_y4=[
0.1,0.31,0.0086,0.18,0.4|
0.22,0.2,0.27,0.26,0.051|
0.25,0.18,0.052,0.29,0.22|
0.015,0.31,0.11,0.17,0.39|
0.32,0.24,0.067,0.25,0.12|
];
transition_y5=[
0.2,0.017,0.3,0.27,0.21|
0.16,0.28,0.24,0.24,0.086|
0.054,0.45,0.23,0.035,0.24|
0.35,0.26,0.034,0.054,0.3|
0.15,0.28,0.27,0.27,0.026|
];
transition_y6=[
0.22,0.28,0.31,0.013,0.17|
0.39,0.16,0.025,0.12,0.3|
0.28,0.036,0.18,0.23,0.28|
0.21,0.34,0.16,0.12,0.17|
0.28,0.053,0.076,0.39,0.21|
];
transition_y7=[
0.12,0.22,0.15,0.21,0.31|
0.028,0.2,0.31,0.24,0.22|
0.27,0.18,0.29,0.03,0.24|
0.26,0.22,0.28,0.23,0.014|
0.19,0.31,0.18,0.08,0.25|
];
transition_y8=[
0.38,0.035,0.17,0.38,0.033|
0.11,0.29,0.27,0.03,0.3|
0.13,0.38,0.055,0.088,0.35|
0.28,0.25,0.13,0.22,0.12|
0.34,0.4,0.12,0.014,0.14|
];
transition_y9=[
0.16,0.31,0.047,0.17,0.31|
0.22,0.19,0.21,0.096,0.28|
0.3,0.016,0.23,0.12,0.34|
0.22,0.18,0.17,0.12,0.31|
0.27,0.29,0.3,0.11,0.023|
];
transition_y10=[
0.2,0.27,0.17,0.069,0.29|
0.4,0.074,0.079,0.017,0.43|
0.065,0.37,0.1,0.17,0.3|
0.079,0.17,0.051,0.64,0.061|
0.032,0.25,0.25,0.27,0.2|
];
